; Insertion sort
(declare-datatypes (a)
  ((list (nil) (cons (head a) (tail (list a))))))
(define-fun
  (par (t)
    (null
       ((x (list t))) Bool
       (match x
         (case nil true)
         (case (cons y z) false)))))
(define-fun-rec
  insert2
    ((x Int) (y (list Int))) (list Int)
    (match y
      (case nil (cons x (as nil (list Int))))
      (case (cons z xs)
        (ite (<= x z) (cons x y) (cons z (insert2 x xs))))))
(define-fun-rec
  isort
    ((x (list Int))) (list Int)
    (match x
      (case nil (as nil (list Int)))
      (case (cons y xs) (insert2 y (isort xs)))))
(define-fun-rec
  elem
    ((x Int) (y (list Int))) Bool
    (match y
      (case nil false)
      (case (cons z ys) (or (= x z) (elem x ys)))))
(define-fun-rec
  delete
    ((x Int) (y (list Int))) (list Int)
    (match y
      (case nil (as nil (list Int)))
      (case (cons z ys) (ite (= x z) ys (cons z (delete x ys))))))
(define-fun-rec
  isPermutation
    ((x (list Int)) (y (list Int))) Bool
    (match x
      (case nil (null y))
      (case (cons z xs)
        (and (elem z y) (isPermutation xs (delete z y))))))
(assert-not (forall ((x (list Int))) (isPermutation (isort x) x)))
(check-sat)
